out/norm/cubes/z3/cubes_norm_inv1_len4_1.out
unsat
((set-logic NIA)
(declare-fun k!2 () Int)
(declare-fun n!0 () Int)
(declare-fun m!1 () Int)
(declare-fun c!3 () Int)
(proof
(let ((?x1178 (* (- 1) k!2)))
 (let ((?x1338 (+ (* 3 n!0) (* 3 (* n!0 n!0)) ?x1178)))
 (let (($x1291 (<= ?x1338 (- 1))))
 (let (($x1257 (= ?x1338 (- 1))))
 (let ((?x702 (+ m!1 k!2)))
 (let ((?x118 (+ 6 m!1)))
 (let ((?x1224 (+ 1 n!0)))
 (let ((?x1065 (+ (* 36 (* m!1 m!1 m!1)) (* 6 (* ?x1224 ?x1224 ?x118 ?x702 ?x702 ?x702 (+ k!2 c!3))) (* (- 6) (* n!0 n!0 n!0 k!2 c!3)) (* 18 (* m!1 m!1 k!2 k!2)) (* 6 (* ?x1224 ?x118 ?x702 ?x702 ?x702 (+ k!2 c!3))) (* 18 (* m!1 m!1 m!1 k!2)) (* 110 (* m!1 m!1 k!2)) (* (- 12) (* m!1 c!3)) (* (- 12) (* m!1 k!2)) (* (- 30) (* n!0 k!2 c!3)) (* (- 30) (* m!1 n!0 k!2)) (* (- 24) (* m!1 n!0 n!0 c!3)) (* (- 24) (* m!1 n!0 n!0 k!2)) (* 111 (* m!1 m!1 n!0 k!2)) (* (- 24) (* n!0 n!0 k!2 k!2)) (* m!1 m!1 n!0 n!0 k!2) (* (- 30) (* m!1 n!0 c!3)) (* (- 24) (* n!0 n!0 k!2 c!3)) (* m!1 n!0 n!0 k!2 k!2) (* m!1 m!1 n!0 n!0 c!3) (* m!1 n!0 n!0 k!2 c!3) (* 6 (* m!1 n!0 k!2 k!2 k!2)) (* 18 (* m!1 m!1 n!0 k!2 k!2)) (* 18 (* m!1 m!1 m!1 n!0 k!2)) (* 6 (* ?x1224 ?x1224 ?x118 ?x702 ?x702 ?x702)) (* 6 (* m!1 k!2 k!2 k!2)) (* 36 (* n!0 k!2 k!2 k!2)) (* 3 (* m!1 n!0 k!2 c!3)) (* (- 12) (* k!2 k!2)) (* (- 30) (* n!0 k!2 k!2)) (* 111 (* m!1 n!0 k!2 k!2)) (* (- 1) (* ?x1224 ?x118 ?x118 ?x702 ?x702 ?x702 (+ k!2 c!3))) (* 110 (* m!1 k!2 k!2)) (* 2 (* m!1 m!1 c!3)) (* (- 6) (* m!1 n!0 n!0 n!0 c!3)) (* 3 (* m!1 m!1 n!0 c!3)) (* (- 1) (* ?x1224 ?x118 ?x118 ?x702 ?x702 ?x702)) (* (- 6) (* n!0 n!0 n!0 k!2 k!2)) (* 2 (* m!1 k!2 c!3)) (* (- 12) (* k!2 c!3)) (* 36 (* m!1 m!1 m!1 n!0)) (* 6 (* m!1 m!1 m!1 m!1 n!0)) (* (- 6) (* m!1 n!0 n!0 n!0 k!2)) (* 6 (* m!1 m!1 m!1 m!1)) (* 36 (* k!2 k!2 k!2)))))
 (let (($x956 (= ?x1065 0)))
 (let (($x717 (not $x956)))
 (let ((?x1059 (+ (* 2 n!0) ?x1178 (* (- 3) c!3) (* n!0 k!2))))
 (let (($x1182 (= ?x1059 (- 1))))
 (let ((?x827 (* k!2 k!2)))
 (let ((?x1294 (+ (* 9 n!0) ?x827 (* (- 5) k!2) (* (- 18) c!3) (* (- 9) (* n!0 c!3)))))
 (let (($x1184 (= ?x1294 (- 4))))
 (let ((?x165 (+ m!1 (* (- 6) n!0))))
 (let (($x187 (= ?x165 6)))
 (let (($x464 (and $x187 $x1184 $x1182 $x1257 $x717)))
 (let ((?x1288 (* (- 6) (* ?x1224 ?x1224 ?x118 (+ k!2 m!1) (+ k!2 m!1) (+ k!2 m!1)))))
 (let ((?x116 (+ c!3 k!2)))
 (let ((?x112 (+ k!2 m!1)))
 (let ((?x1239 (+ (* 12 ?x827) (* 30 (* k!2 m!1 n!0)) (* 30 (* c!3 m!1 n!0)) (* 30 (* k!2 k!2 n!0)) (* 30 (* c!3 k!2 n!0)) (* 12 (* k!2 m!1)) (* 12 (* c!3 m!1)) (* 12 (* c!3 k!2)) (* (- 3) (* c!3 k!2 m!1 n!0)) (* (- 111) (* k!2 k!2 m!1 n!0)) (* (- 3) (* c!3 m!1 m!1 n!0)) (* (- 111) (* k!2 m!1 m!1 n!0)) (* (- 2) (* c!3 k!2 m!1)) (* (- 110) (* k!2 k!2 m!1)) (* (- 2) (* c!3 m!1 m!1)) (* (- 110) (* k!2 m!1 m!1)) (* 24 (* k!2 m!1 n!0 n!0)) (* 24 (* c!3 m!1 n!0 n!0)) (* 24 (* k!2 k!2 n!0 n!0)) (* 24 (* c!3 k!2 n!0 n!0)) (* (- 1) (* k!2 m!1 m!1 n!0 n!0)) (* (- 1) (* k!2 k!2 m!1 n!0 n!0)) (* (- 1) (* c!3 m!1 m!1 n!0 n!0)) (* (- 1) (* c!3 k!2 m!1 n!0 n!0)) (* (- 6) (* k!2 k!2 k!2 m!1 n!0)) (* (- 18) (* k!2 k!2 m!1 m!1 n!0)) (* (- 18) (* k!2 m!1 m!1 m!1 n!0)) (* (- 6) (* m!1 m!1 m!1 m!1 n!0)) (* (- 6) (* ?x1224 ?x1224 ?x118 ?x112 ?x112 ?x112 ?x116)) (* (- 36) (* m!1 m!1 m!1)) (* (- 6) (* m!1 m!1 m!1 m!1)) (* 6 (* c!3 k!2 n!0 n!0 n!0)) (* 6 (* k!2 k!2 n!0 n!0 n!0)) (* 6 (* c!3 m!1 n!0 n!0 n!0)) (* 6 (* k!2 m!1 n!0 n!0 n!0)) (* (- 18) (* k!2 k!2 m!1 m!1)) (* (- 6) (* ?x1224 ?x118 ?x112 ?x112 ?x112 ?x116)) (* (- 36) (* k!2 k!2 k!2)) (* ?x1224 ?x118 ?x118 ?x112 ?x112 ?x112 ?x116) ?x1288 (* ?x1224 ?x118 ?x118 ?x112 ?x112 ?x112) (* (- 36) (* k!2 k!2 k!2 n!0)) (* (- 6) (* k!2 k!2 k!2 m!1)) (* (- 18) (* k!2 m!1 m!1 m!1)) (* (- 36) (* m!1 m!1 m!1 n!0)))))
 (let (($x468 (= (+ (* 3 c!3) k!2 (* (- 2) n!0) (* (- 1) (* k!2 n!0))) 1)))
 (let ((?x1208 (+ (* 18 c!3) (* 5 k!2) (* (- 9) n!0) (* (- 1) ?x827) (* 9 (* c!3 n!0)))))
 (let (($x1290 (and $x187 (= ?x1208 4) $x468 (= (+ k!2 (* (- 3) n!0) (* (- 3) (* n!0 n!0))) 1) (not (= ?x1239 0)))))
 (let (($x1022 (exists ((c Int) (k Int) (m Int) (n Int) )(! (let ((?x252 (* (- 36) (* m m m n))))
 (let ((?x251 (* (- 18) (* k m m m))))
 (let ((?x247 (* (- 6) (* k k k m))))
 (let ((?x246 (* (- 36) (* k k k n))))
 (let ((?x69 (+ k m)))
 (let ((?x310 (+ 6 m)))
 (let ((?x313 (+ 1 n)))
 (let ((?x1180 (* ?x313 ?x310 ?x310 ?x69 ?x69 ?x69)))
 (let ((?x1145 (* ?x313 ?x313 ?x310 ?x69 ?x69 ?x69)))
 (let ((?x245 (* (- 6) ?x1145)))
 (let ((?x68 (+ c k)))
 (let ((?x1144 (* ?x313 ?x310 ?x310 ?x69 ?x69 ?x69 ?x68)))
 (let ((?x240 (* (- 36) (* k k k))))
 (let ((?x1100 (* ?x313 ?x310 ?x69 ?x69 ?x69 ?x68)))
 (let ((?x239 (* (- 6) ?x1100)))
 (let ((?x238 (* (- 18) (* k k m m))))
 (let ((?x1076 (* 6 (* k m n n n))))
 (let ((?x1074 (* 6 (* c m n n n))))
 (let ((?x1072 (* 6 (* k k n n n))))
 (let ((?x1070 (* 6 (* c k n n n))))
 (let ((?x237 (* (- 6) (* m m m m))))
 (let ((?x236 (* (- 36) (* m m m))))
 (let ((?x1046 (* ?x313 ?x313 ?x310 ?x69 ?x69 ?x69 ?x68)))
 (let ((?x233 (* (- 6) ?x1046)))
 (let ((?x1568 (* (- 6) (* m m m m n))))
 (let ((?x963 (* k m m m n)))
 (let ((?x230 (* (- 18) ?x963)))
 (let ((?x959 (* k k m m n)))
 (let ((?x227 (* (- 18) ?x959)))
 (let ((?x1561 (* (- 6) (* k k k m n))))
 (let ((?x1555 (* (- 1) (* c k m n n))))
 (let ((?x1554 (* (- 1) (* c m m n n))))
 (let ((?x1553 (* (- 1) (* k k m n n))))
 (let ((?x1552 (* (- 1) (* k m m n n))))
 (let ((?x1551 (* 24 (* c k n n))))
 (let ((?x1550 (* 24 (* k k n n))))
 (let ((?x1549 (* 24 (* c m n n))))
 (let ((?x1548 (* 24 (* k m n n))))
 (let ((?x754 (* k m m)))
 (let ((?x226 (* (- 110) ?x754)))
 (let ((?x1526 (* (- 2) (* c m m))))
 (let ((?x748 (* k k m)))
 (let ((?x223 (* (- 110) ?x748)))
 (let ((?x1524 (* (- 2) (* c k m))))
 (let ((?x727 (* k m m n)))
 (let ((?x309 (* (- 111) ?x727)))
 (let ((?x1522 (* (- 3) (* c m m n))))
 (let ((?x725 (* k k m n)))
 (let ((?x308 (* (- 111) ?x725)))
 (let ((?x1520 (* (- 3) (* c k m n))))
 (let ((?x685 (* c k)))
 (let ((?x1519 (* 12 ?x685)))
 (let ((?x678 (* c m)))
 (let ((?x1518 (* 12 ?x678)))
 (let ((?x674 (* k m)))
 (let ((?x1517 (* 12 ?x674)))
 (let ((?x1516 (* 30 (* c k n))))
 (let ((?x1515 (* 30 (* k k n))))
 (let ((?x1514 (* 30 (* c m n))))
 (let ((?x1513 (* 30 (* k m n))))
 (let ((?x49 (* k k)))
 (let ((?x1382 (* 12 ?x49)))
 (let ((?x881 (+ ?x1382 ?x1513 ?x1514 ?x1515 ?x1516 ?x1517 ?x1518 ?x1519 ?x1520 ?x308 ?x1522 ?x309 ?x1524 ?x223 ?x1526 ?x226 ?x1548 ?x1549 ?x1550 ?x1551 ?x1552 ?x1553 ?x1554 ?x1555 ?x1561 ?x227 ?x230 ?x1568 ?x233 ?x236 ?x237 ?x1070 ?x1072 ?x1074 ?x1076 ?x238 ?x239 ?x240 ?x1144 ?x245 ?x1180 ?x246 ?x247 ?x251 ?x252)))
 (let (($x302 (= (+ k (* (- 3) n) (* (- 3) (* n n))) 1)))
 (let (($x264 (= (+ (* 3 c) k (* (- 2) n) (* (- 1) (* k n))) 1)))
 (let ((?x215 (* (- 1) ?x49)))
 (let ((?x214 (* (- 9) n)))
 (let ((?x44 (* 5 k)))
 (let ((?x40 (* 18 c)))
 (let (($x212 (= (+ ?x40 ?x44 ?x214 ?x215 (* 9 (* c n))) 4)))
 (let (($x128 (= (+ m (* (- 6) n)) 6)))
 (and $x128 $x212 $x264 $x302 (not (= ?x881 0)))))))))))))))))))))))))))))))))))))))))))))))))))))))))))))))))))))))))) :qid k!34))
 ))
 (let (($x340 (exists ((c Int) (k Int) (m Int) (n Int) )(! (let ((?x252 (* (- 36) (* m m m n))))
 (let ((?x251 (* (- 18) (* k m m m))))
 (let ((?x247 (* (- 6) (* k k k m))))
 (let ((?x246 (* (- 36) (* k k k n))))
 (let ((?x69 (+ k m)))
 (let ((?x310 (+ 6 m)))
 (let ((?x313 (+ 1 n)))
 (let ((?x1180 (* ?x313 ?x310 ?x310 ?x69 ?x69 ?x69)))
 (let ((?x1145 (* ?x313 ?x313 ?x310 ?x69 ?x69 ?x69)))
 (let ((?x245 (* (- 6) ?x1145)))
 (let ((?x68 (+ c k)))
 (let ((?x1144 (* ?x313 ?x310 ?x310 ?x69 ?x69 ?x69 ?x68)))
 (let ((?x240 (* (- 36) (* k k k))))
 (let ((?x1100 (* ?x313 ?x310 ?x69 ?x69 ?x69 ?x68)))
 (let ((?x239 (* (- 6) ?x1100)))
 (let ((?x238 (* (- 18) (* k k m m))))
 (let ((?x1076 (* 6 (* k m n n n))))
 (let ((?x1074 (* 6 (* c m n n n))))
 (let ((?x1072 (* 6 (* k k n n n))))
 (let ((?x1070 (* 6 (* c k n n n))))
 (let ((?x237 (* (- 6) (* m m m m))))
 (let ((?x236 (* (- 36) (* m m m))))
 (let ((?x1046 (* ?x313 ?x313 ?x310 ?x69 ?x69 ?x69 ?x68)))
 (let ((?x233 (* (- 6) ?x1046)))
 (let ((?x1568 (* (- 6) (* m m m m n))))
 (let ((?x963 (* k m m m n)))
 (let ((?x230 (* (- 18) ?x963)))
 (let ((?x959 (* k k m m n)))
 (let ((?x227 (* (- 18) ?x959)))
 (let ((?x1561 (* (- 6) (* k k k m n))))
 (let ((?x1555 (* (- 1) (* c k m n n))))
 (let ((?x1554 (* (- 1) (* c m m n n))))
 (let ((?x1553 (* (- 1) (* k k m n n))))
 (let ((?x1552 (* (- 1) (* k m m n n))))
 (let ((?x1551 (* 24 (* c k n n))))
 (let ((?x1550 (* 24 (* k k n n))))
 (let ((?x1549 (* 24 (* c m n n))))
 (let ((?x1548 (* 24 (* k m n n))))
 (let ((?x754 (* k m m)))
 (let ((?x226 (* (- 110) ?x754)))
 (let ((?x1526 (* (- 2) (* c m m))))
 (let ((?x748 (* k k m)))
 (let ((?x223 (* (- 110) ?x748)))
 (let ((?x1524 (* (- 2) (* c k m))))
 (let ((?x727 (* k m m n)))
 (let ((?x309 (* (- 111) ?x727)))
 (let ((?x1522 (* (- 3) (* c m m n))))
 (let ((?x725 (* k k m n)))
 (let ((?x308 (* (- 111) ?x725)))
 (let ((?x1520 (* (- 3) (* c k m n))))
 (let ((?x1516 (* 30 (* c k n))))
 (let ((?x1515 (* 30 (* k k n))))
 (let ((?x1514 (* 30 (* c m n))))
 (let ((?x1513 (* 30 (* k m n))))
 (let ((?x49 (* k k)))
 (let ((?x1382 (* 12 ?x49)))
 (let ((?x253 (+ ?x1382 ?x1513 ?x1514 ?x1515 ?x1516 (* 24 (* k m)) (* 24 (* c m)) (* 24 (* c k)) ?x1520 ?x308 ?x1522 ?x309 ?x1524 ?x223 ?x1526 ?x226 ?x1548 ?x1549 ?x1550 ?x1551 ?x1552 ?x1553 ?x1554 ?x1555 ?x1561 ?x227 ?x230 ?x1568 (* (- 12) (* m c)) ?x233 ?x236 ?x237 ?x1070 ?x1072 ?x1074 ?x1076 ?x238 ?x239 ?x240 (* (- 12) (* m k)) (* (- 12) (* k c)) ?x1144 ?x245 ?x1180 ?x246 ?x247 ?x251 ?x252)))
 (let (($x302 (= (+ k (* (- 3) n) (* (- 3) (* n n))) 1)))
 (let (($x264 (= (+ (* 3 c) k (* (- 2) n) (* (- 1) (* k n))) 1)))
 (let ((?x215 (* (- 1) ?x49)))
 (let ((?x214 (* (- 9) n)))
 (let ((?x44 (* 5 k)))
 (let ((?x40 (* 18 c)))
 (let (($x212 (= (+ ?x40 ?x44 ?x214 ?x215 (* 9 (* c n))) 4)))
 (let (($x128 (= (+ m (* (- 6) n)) 6)))
 (and $x128 $x212 $x264 $x302 (not (= ?x253 0)))))))))))))))))))))))))))))))))))))))))))))))))))))))))))))))))))) :qid k!34))
 ))
 (let ((?x344 (lambda ((c Int) (k Int) (m Int) (n Int) )(let ((?x252 (* (- 36) (* m m m n))))
 (let ((?x251 (* (- 18) (* k m m m))))
 (let ((?x247 (* (- 6) (* k k k m))))
 (let ((?x246 (* (- 36) (* k k k n))))
 (let ((?x69 (+ k m)))
 (let ((?x310 (+ 6 m)))
 (let ((?x313 (+ 1 n)))
 (let ((?x1180 (* ?x313 ?x310 ?x310 ?x69 ?x69 ?x69)))
 (let ((?x1145 (* ?x313 ?x313 ?x310 ?x69 ?x69 ?x69)))
 (let ((?x245 (* (- 6) ?x1145)))
 (let ((?x68 (+ c k)))
 (let ((?x1144 (* ?x313 ?x310 ?x310 ?x69 ?x69 ?x69 ?x68)))
 (let ((?x240 (* (- 36) (* k k k))))
 (let ((?x1100 (* ?x313 ?x310 ?x69 ?x69 ?x69 ?x68)))
 (let ((?x239 (* (- 6) ?x1100)))
 (let ((?x238 (* (- 18) (* k k m m))))
 (let ((?x1076 (* 6 (* k m n n n))))
 (let ((?x1074 (* 6 (* c m n n n))))
 (let ((?x1072 (* 6 (* k k n n n))))
 (let ((?x1070 (* 6 (* c k n n n))))
 (let ((?x237 (* (- 6) (* m m m m))))
 (let ((?x236 (* (- 36) (* m m m))))
 (let ((?x1046 (* ?x313 ?x313 ?x310 ?x69 ?x69 ?x69 ?x68)))
 (let ((?x233 (* (- 6) ?x1046)))
 (let ((?x1568 (* (- 6) (* m m m m n))))
 (let ((?x963 (* k m m m n)))
 (let ((?x230 (* (- 18) ?x963)))
 (let ((?x959 (* k k m m n)))
 (let ((?x227 (* (- 18) ?x959)))
 (let ((?x1561 (* (- 6) (* k k k m n))))
 (let ((?x1555 (* (- 1) (* c k m n n))))
 (let ((?x1554 (* (- 1) (* c m m n n))))
 (let ((?x1553 (* (- 1) (* k k m n n))))
 (let ((?x1552 (* (- 1) (* k m m n n))))
 (let ((?x1551 (* 24 (* c k n n))))
 (let ((?x1550 (* 24 (* k k n n))))
 (let ((?x1549 (* 24 (* c m n n))))
 (let ((?x1548 (* 24 (* k m n n))))
 (let ((?x754 (* k m m)))
 (let ((?x226 (* (- 110) ?x754)))
 (let ((?x1526 (* (- 2) (* c m m))))
 (let ((?x748 (* k k m)))
 (let ((?x223 (* (- 110) ?x748)))
 (let ((?x1524 (* (- 2) (* c k m))))
 (let ((?x727 (* k m m n)))
 (let ((?x309 (* (- 111) ?x727)))
 (let ((?x1522 (* (- 3) (* c m m n))))
 (let ((?x725 (* k k m n)))
 (let ((?x308 (* (- 111) ?x725)))
 (let ((?x1520 (* (- 3) (* c k m n))))
 (let ((?x685 (* c k)))
 (let ((?x1519 (* 12 ?x685)))
 (let ((?x678 (* c m)))
 (let ((?x1518 (* 12 ?x678)))
 (let ((?x674 (* k m)))
 (let ((?x1517 (* 12 ?x674)))
 (let ((?x1516 (* 30 (* c k n))))
 (let ((?x1515 (* 30 (* k k n))))
 (let ((?x1514 (* 30 (* c m n))))
 (let ((?x1513 (* 30 (* k m n))))
 (let ((?x49 (* k k)))
 (let ((?x1382 (* 12 ?x49)))
 (let ((?x881 (+ ?x1382 ?x1513 ?x1514 ?x1515 ?x1516 ?x1517 ?x1518 ?x1519 ?x1520 ?x308 ?x1522 ?x309 ?x1524 ?x223 ?x1526 ?x226 ?x1548 ?x1549 ?x1550 ?x1551 ?x1552 ?x1553 ?x1554 ?x1555 ?x1561 ?x227 ?x230 ?x1568 ?x233 ?x236 ?x237 ?x1070 ?x1072 ?x1074 ?x1076 ?x238 ?x239 ?x240 ?x1144 ?x245 ?x1180 ?x246 ?x247 ?x251 ?x252)))
 (let (($x302 (= (+ k (* (- 3) n) (* (- 3) (* n n))) 1)))
 (let (($x264 (= (+ (* 3 c) k (* (- 2) n) (* (- 1) (* k n))) 1)))
 (let ((?x215 (* (- 1) ?x49)))
 (let ((?x214 (* (- 9) n)))
 (let ((?x44 (* 5 k)))
 (let ((?x40 (* 18 c)))
 (let (($x212 (= (+ ?x40 ?x44 ?x214 ?x215 (* 9 (* c n))) 4)))
 (let (($x128 (= (+ m (* (- 6) n)) 6)))
 (let (($x191 (and $x128 $x212 $x264 $x302 (not (= ?x881 0)))))
 (let ((?x253 (+ ?x1382 ?x1513 ?x1514 ?x1515 ?x1516 (* 24 ?x674) (* 24 ?x678) (* 24 ?x685) ?x1520 ?x308 ?x1522 ?x309 ?x1524 ?x223 ?x1526 ?x226 ?x1548 ?x1549 ?x1550 ?x1551 ?x1552 ?x1553 ?x1554 ?x1555 ?x1561 ?x227 ?x230 ?x1568 (* (- 12) (* m c)) ?x233 ?x236 ?x237 ?x1070 ?x1072 ?x1074 ?x1076 ?x238 ?x239 ?x240 (* (- 12) (* m k)) (* (- 12) (* k c)) ?x1144 ?x245 ?x1180 ?x246 ?x247 ?x251 ?x252)))
 (let (($x1042 (and $x128 $x212 $x264 $x302 (not (= ?x253 0)))))
 (rewrite (= $x1042 $x191)))))))))))))))))))))))))))))))))))))))))))))))))))))))))))))))))))))))))))))
 ))
 (let (($x1127 (exists ((c Int) (k Int) (m Int) (n Int) )(! (let ((?x190 (* (- 12) (* (+ 1 n) (+ 1 n) (+ k m) (+ c k)))))
 (let ((?x68 (+ c k)))
 (let ((?x69 (+ k m)))
 (let ((?x313 (+ 1 n)))
 (let ((?x310 (+ 6 m)))
 (let ((?x1144 (* ?x313 ?x310 ?x310 ?x69 ?x69 ?x69 ?x68)))
 (let ((?x193 (+ (* 6 (* ?x313 ?x310 ?x69 ?x69 ?x69 ?x68)) (* 6 (* ?x313 ?x313 ?x310 ?x69 ?x69 ?x69)) (* (- 1) ?x1144) (* (- 6) (* ?x313 ?x69 ?x68)) (* ?x313 ?x310 ?x69 ?x68) (* 6 (* ?x313 ?x313 ?x310 ?x69 ?x69 ?x69 ?x68)) (* ?x313 ?x313 ?x310 ?x69 ?x68) (* 6 (* ?x313 ?x310 ?x69 ?x69 ?x69)) (* (- 1) (* ?x313 ?x310 ?x310 ?x69 ?x69 ?x69)) (* (- 6) (* ?x313 ?x313 ?x313 ?x69 ?x68)) ?x190)))
 (let (($x1010 (not (= ?x193 0))))
 (let (($x1098 (= (+ (* 3 (* n n)) (* (- 1) k) (* 3 n)) (- 1))))
 (let (($x1152 (= (+ (* 3 c) (* (- 1) (* n k)) k (* (- 2) n)) 1)))
 (let ((?x49 (* k k)))
 (let ((?x215 (* (- 1) ?x49)))
 (let ((?x214 (* (- 9) n)))
 (let ((?x44 (* 5 k)))
 (let ((?x40 (* 18 c)))
 (let (($x128 (= (+ m (* (- 6) n)) 6)))
 (and $x128 (= (+ ?x40 (* 9 (* n c)) ?x44 ?x214 ?x215) 4) $x1152 $x1098 $x1010))))))))))))))))) :qid k!34))
 ))
 (let ((?x336 (lambda ((c Int) (k Int) (m Int) (n Int) )(let ((?x252 (* (- 36) (* m m m n))))
 (let ((?x251 (* (- 18) (* k m m m))))
 (let ((?x247 (* (- 6) (* k k k m))))
 (let ((?x246 (* (- 36) (* k k k n))))
 (let ((?x69 (+ k m)))
 (let ((?x310 (+ 6 m)))
 (let ((?x313 (+ 1 n)))
 (let ((?x1180 (* ?x313 ?x310 ?x310 ?x69 ?x69 ?x69)))
 (let ((?x1145 (* ?x313 ?x313 ?x310 ?x69 ?x69 ?x69)))
 (let ((?x245 (* (- 6) ?x1145)))
 (let ((?x68 (+ c k)))
 (let ((?x1144 (* ?x313 ?x310 ?x310 ?x69 ?x69 ?x69 ?x68)))
 (let ((?x240 (* (- 36) (* k k k))))
 (let ((?x1100 (* ?x313 ?x310 ?x69 ?x69 ?x69 ?x68)))
 (let ((?x239 (* (- 6) ?x1100)))
 (let ((?x238 (* (- 18) (* k k m m))))
 (let ((?x1076 (* 6 (* k m n n n))))
 (let ((?x1074 (* 6 (* c m n n n))))
 (let ((?x1072 (* 6 (* k k n n n))))
 (let ((?x1070 (* 6 (* c k n n n))))
 (let ((?x237 (* (- 6) (* m m m m))))
 (let ((?x236 (* (- 36) (* m m m))))
 (let ((?x1046 (* ?x313 ?x313 ?x310 ?x69 ?x69 ?x69 ?x68)))
 (let ((?x233 (* (- 6) ?x1046)))
 (let ((?x1568 (* (- 6) (* m m m m n))))
 (let ((?x963 (* k m m m n)))
 (let ((?x230 (* (- 18) ?x963)))
 (let ((?x959 (* k k m m n)))
 (let ((?x227 (* (- 18) ?x959)))
 (let ((?x1561 (* (- 6) (* k k k m n))))
 (let ((?x1555 (* (- 1) (* c k m n n))))
 (let ((?x1554 (* (- 1) (* c m m n n))))
 (let ((?x1553 (* (- 1) (* k k m n n))))
 (let ((?x1552 (* (- 1) (* k m m n n))))
 (let ((?x1551 (* 24 (* c k n n))))
 (let ((?x1550 (* 24 (* k k n n))))
 (let ((?x1549 (* 24 (* c m n n))))
 (let ((?x1548 (* 24 (* k m n n))))
 (let ((?x754 (* k m m)))
 (let ((?x226 (* (- 110) ?x754)))
 (let ((?x1526 (* (- 2) (* c m m))))
 (let ((?x748 (* k k m)))
 (let ((?x223 (* (- 110) ?x748)))
 (let ((?x1524 (* (- 2) (* c k m))))
 (let ((?x727 (* k m m n)))
 (let ((?x309 (* (- 111) ?x727)))
 (let ((?x1522 (* (- 3) (* c m m n))))
 (let ((?x725 (* k k m n)))
 (let ((?x308 (* (- 111) ?x725)))
 (let ((?x1520 (* (- 3) (* c k m n))))
 (let ((?x1516 (* 30 (* c k n))))
 (let ((?x1515 (* 30 (* k k n))))
 (let ((?x1514 (* 30 (* c m n))))
 (let ((?x1513 (* 30 (* k m n))))
 (let ((?x49 (* k k)))
 (let ((?x1382 (* 12 ?x49)))
 (let ((?x253 (+ ?x1382 ?x1513 ?x1514 ?x1515 ?x1516 (* 24 (* k m)) (* 24 (* c m)) (* 24 (* c k)) ?x1520 ?x308 ?x1522 ?x309 ?x1524 ?x223 ?x1526 ?x226 ?x1548 ?x1549 ?x1550 ?x1551 ?x1552 ?x1553 ?x1554 ?x1555 ?x1561 ?x227 ?x230 ?x1568 (* (- 12) (* m c)) ?x233 ?x236 ?x237 ?x1070 ?x1072 ?x1074 ?x1076 ?x238 ?x239 ?x240 (* (- 12) (* m k)) (* (- 12) (* k c)) ?x1144 ?x245 ?x1180 ?x246 ?x247 ?x251 ?x252)))
 (let (($x302 (= (+ k (* (- 3) n) (* (- 3) (* n n))) 1)))
 (let (($x264 (= (+ (* 3 c) k (* (- 2) n) (* (- 1) (* k n))) 1)))
 (let ((?x215 (* (- 1) ?x49)))
 (let ((?x214 (* (- 9) n)))
 (let ((?x44 (* 5 k)))
 (let ((?x40 (* 18 c)))
 (let (($x212 (= (+ ?x40 ?x44 ?x214 ?x215 (* 9 (* c n))) 4)))
 (let (($x128 (= (+ m (* (- 6) n)) 6)))
 (let (($x1042 (and $x128 $x212 $x264 $x302 (not (= ?x253 0)))))
 (let ((?x193 (+ (* 6 ?x1100) (* 6 ?x1145) (* (- 1) ?x1144) (* (- 6) (* ?x313 ?x69 ?x68)) (* ?x313 ?x310 ?x69 ?x68) (* 6 ?x1046) (* ?x313 ?x313 ?x310 ?x69 ?x68) (* 6 (* ?x313 ?x310 ?x69 ?x69 ?x69)) (* (- 1) ?x1180) (* (- 6) (* ?x313 ?x313 ?x313 ?x69 ?x68)) (* (- 12) (* ?x313 ?x313 ?x69 ?x68)))))
 (let (($x1010 (not (= ?x193 0))))
 (let (($x1098 (= (+ (* 3 (* n n)) (* (- 1) k) (* 3 n)) (- 1))))
 (let (($x1152 (= (+ (* 3 c) (* (- 1) (* n k)) k (* (- 2) n)) 1)))
 (let (($x1195 (and $x128 (= (+ ?x40 (* 9 (* n c)) ?x44 ?x214 ?x215) 4) $x1152 $x1098 $x1010)))
 (rewrite (= $x1195 $x1042))))))))))))))))))))))))))))))))))))))))))))))))))))))))))))))))))))))))))
 ))
 (let (($x1103 (exists ((c Int) (k Int) (m Int) (n Int) )(! (let ((?x190 (* (- 12) (* (+ 1 n) (+ 1 n) (+ k m) (+ c k)))))
 (let ((?x68 (+ c k)))
 (let ((?x69 (+ k m)))
 (let ((?x313 (+ 1 n)))
 (let ((?x310 (+ 6 m)))
 (let ((?x1144 (* ?x313 ?x310 ?x310 ?x69 ?x69 ?x69 ?x68)))
 (let ((?x193 (+ (* 6 (* ?x313 ?x310 ?x69 ?x69 ?x69 ?x68)) (* 6 (* ?x313 ?x313 ?x310 ?x69 ?x69 ?x69)) (* (- 1) ?x1144) (* (- 6) (* ?x313 ?x69 ?x68)) (* ?x313 ?x310 ?x69 ?x68) (* 6 (* ?x313 ?x313 ?x310 ?x69 ?x69 ?x69 ?x68)) (* ?x313 ?x313 ?x310 ?x69 ?x68) (* 6 (* ?x313 ?x310 ?x69 ?x69 ?x69)) (* (- 1) (* ?x313 ?x310 ?x310 ?x69 ?x69 ?x69)) (* (- 6) (* ?x313 ?x313 ?x313 ?x69 ?x68)) ?x190)))
 (let (($x1010 (not (= ?x193 0))))
 (let (($x1098 (= (+ (* 3 (* n n)) (* (- 1) k) (* 3 n)) (- 1))))
 (let (($x812 (= (+ (* (- 3) c) (* n k) (* (- 1) k) (* 2 n)) (- 1))))
 (let ((?x49 (* k k)))
 (let ((?x48 (* 9 n)))
 (let ((?x546 (+ (* (- 18) c) (* (- 9) (* n c)) (* (- 5) k) ?x48 ?x49)))
 (let (($x128 (= (+ m (* (- 6) n)) 6)))
 (and $x128 (= ?x546 (- 4)) $x812 $x1098 $x1010))))))))))))))) :qid k!34))
 ))
 (let ((?x1200 (lambda ((c Int) (k Int) (m Int) (n Int) )(let ((?x190 (* (- 12) (* (+ 1 n) (+ 1 n) (+ k m) (+ c k)))))
 (let ((?x68 (+ c k)))
 (let ((?x69 (+ k m)))
 (let ((?x313 (+ 1 n)))
 (let ((?x310 (+ 6 m)))
 (let ((?x1144 (* ?x313 ?x310 ?x310 ?x69 ?x69 ?x69 ?x68)))
 (let ((?x193 (+ (* 6 (* ?x313 ?x310 ?x69 ?x69 ?x69 ?x68)) (* 6 (* ?x313 ?x313 ?x310 ?x69 ?x69 ?x69)) (* (- 1) ?x1144) (* (- 6) (* ?x313 ?x69 ?x68)) (* ?x313 ?x310 ?x69 ?x68) (* 6 (* ?x313 ?x313 ?x310 ?x69 ?x69 ?x69 ?x68)) (* ?x313 ?x313 ?x310 ?x69 ?x68) (* 6 (* ?x313 ?x310 ?x69 ?x69 ?x69)) (* (- 1) (* ?x313 ?x310 ?x310 ?x69 ?x69 ?x69)) (* (- 6) (* ?x313 ?x313 ?x313 ?x69 ?x68)) ?x190)))
 (let (($x1010 (not (= ?x193 0))))
 (let (($x1098 (= (+ (* 3 (* n n)) (* (- 1) k) (* 3 n)) (- 1))))
 (let (($x1152 (= (+ (* 3 c) (* (- 1) (* n k)) k (* (- 2) n)) 1)))
 (let ((?x49 (* k k)))
 (let ((?x215 (* (- 1) ?x49)))
 (let ((?x214 (* (- 9) n)))
 (let ((?x44 (* 5 k)))
 (let ((?x40 (* 18 c)))
 (let (($x128 (= (+ m (* (- 6) n)) 6)))
 (let (($x1195 (and $x128 (= (+ ?x40 (* 9 (* n c)) ?x44 ?x214 ?x215) 4) $x1152 $x1098 $x1010)))
 (let (($x812 (= (+ (* (- 3) c) (* n k) (* (- 1) k) (* 2 n)) (- 1))))
 (let ((?x48 (* 9 n)))
 (let ((?x546 (+ (* (- 18) c) (* (- 9) (* n c)) (* (- 5) k) ?x48 ?x49)))
 (let (($x1141 (and $x128 (= ?x546 (- 4)) $x812 $x1098 $x1010)))
 (rewrite (= $x1141 $x1195))))))))))))))))))))))))
 ))
 (let (($x95 (exists ((c Int) (k Int) (m Int) (n Int) )(! (let ((?x71 (+ n 1)))
 (let ((?x69 (+ k m)))
 (let ((?x68 (+ c k)))
 (let ((?x74 (+ (* 6 ?x68 ?x69 ?x69 ?x69 (+ m 6) ?x71) (* 6 ?x69 ?x69 ?x69 (+ m 6) ?x71 ?x71))))
 (let ((?x77 (- ?x74 (* ?x68 ?x69 ?x69 ?x69 (+ m 6) (+ m 6) ?x71))))
 (let ((?x83 (+ (- ?x77 (* 6 ?x68 ?x69 ?x71)) (* ?x68 ?x69 (+ m 6) ?x71) (* 6 ?x68 ?x69 ?x69 ?x69 (+ m 6) ?x71 ?x71) (* ?x68 ?x69 (+ m 6) ?x71 ?x71) (* 6 ?x69 ?x69 ?x69 (+ m 6) ?x71))))
 (let ((?x89 (- (- ?x83 (* ?x69 ?x69 ?x69 (+ m 6) (+ m 6) ?x71)) (* 6 ?x68 ?x69 ?x71 ?x71 ?x71))))
 (let (($x67 (= (+ (- (+ 1 (* 3 n n)) k) (* 3 n)) 0)))
 (let ((?x59 (* 2 n)))
 (let (($x61 (= (+ (- (+ (- 1 (* 3 c)) (* k n)) k) ?x59) 0)))
 (let ((?x49 (* k k)))
 (let ((?x48 (* 9 n)))
 (let ((?x44 (* 5 k)))
 (let ((?x47 (- (- (- (* 4 1) (* 18 c)) (* 9 c n)) ?x44)))
 (and (= (- (+ (* (- 6) 1) m) (* 6 n)) 0) (= (+ ?x47 ?x48 ?x49) 0) $x61 $x67 (or (not (= (- ?x89 (* 12 ?x68 ?x69 ?x71 ?x71)) 0)))))))))))))))))) :qid k!34))
 ))
 (let ((?x600 (lambda ((c Int) (k Int) (m Int) (n Int) )(let ((?x190 (* (- 12) (* (+ 1 n) (+ 1 n) (+ k m) (+ c k)))))
 (let ((?x68 (+ c k)))
 (let ((?x69 (+ k m)))
 (let ((?x313 (+ 1 n)))
 (let ((?x310 (+ 6 m)))
 (let ((?x1144 (* ?x313 ?x310 ?x310 ?x69 ?x69 ?x69 ?x68)))
 (let ((?x193 (+ (* 6 (* ?x313 ?x310 ?x69 ?x69 ?x69 ?x68)) (* 6 (* ?x313 ?x313 ?x310 ?x69 ?x69 ?x69)) (* (- 1) ?x1144) (* (- 6) (* ?x313 ?x69 ?x68)) (* ?x313 ?x310 ?x69 ?x68) (* 6 (* ?x313 ?x313 ?x310 ?x69 ?x69 ?x69 ?x68)) (* ?x313 ?x313 ?x310 ?x69 ?x68) (* 6 (* ?x313 ?x310 ?x69 ?x69 ?x69)) (* (- 1) (* ?x313 ?x310 ?x310 ?x69 ?x69 ?x69)) (* (- 6) (* ?x313 ?x313 ?x313 ?x69 ?x68)) ?x190)))
 (let (($x1010 (not (= ?x193 0))))
 (let (($x1098 (= (+ (* 3 (* n n)) (* (- 1) k) (* 3 n)) (- 1))))
 (let (($x812 (= (+ (* (- 3) c) (* n k) (* (- 1) k) (* 2 n)) (- 1))))
 (let ((?x49 (* k k)))
 (let ((?x48 (* 9 n)))
 (let ((?x546 (+ (* (- 18) c) (* (- 9) (* n c)) (* (- 5) k) ?x48 ?x49)))
 (let (($x128 (= (+ m (* (- 6) n)) 6)))
 (let (($x1141 (and $x128 (= ?x546 (- 4)) $x812 $x1098 $x1010)))
 (let ((?x71 (+ n 1)))
 (let ((?x70 (+ m 6)))
 (let ((?x74 (+ (* 6 ?x68 ?x69 ?x69 ?x69 ?x70 ?x71) (* 6 ?x69 ?x69 ?x69 ?x70 ?x71 ?x71))))
 (let ((?x78 (- (- ?x74 (* ?x68 ?x69 ?x69 ?x69 ?x70 ?x70 ?x71)) (* 6 ?x68 ?x69 ?x71))))
 (let ((?x83 (+ ?x78 (* ?x68 ?x69 ?x70 ?x71) (* 6 ?x68 ?x69 ?x69 ?x69 ?x70 ?x71 ?x71) (* ?x68 ?x69 ?x70 ?x71 ?x71) (* 6 ?x69 ?x69 ?x69 ?x70 ?x71))))
 (let ((?x89 (- (- ?x83 (* ?x69 ?x69 ?x69 ?x70 ?x70 ?x71)) (* 6 ?x68 ?x69 ?x71 ?x71 ?x71))))
 (let (($x67 (= (+ (- (+ 1 (* 3 n n)) k) (* 3 n)) 0)))
 (let ((?x59 (* 2 n)))
 (let (($x61 (= (+ (- (+ (- 1 (* 3 c)) (* k n)) k) ?x59) 0)))
 (let ((?x44 (* 5 k)))
 (let ((?x47 (- (- (- (* 4 1) (* 18 c)) (* 9 c n)) ?x44)))
 (let (($x94 (and (= (- (+ (* (- 6) 1) m) (* 6 n)) 0) (= (+ ?x47 ?x48 ?x49) 0) $x61 $x67 (or (not (= (- ?x89 (* 12 ?x68 ?x69 ?x71 ?x71)) 0))))))
 (rewrite (= $x94 $x1141))))))))))))))))))))))))))))))
 ))
 (let ((@x96 (asserted $x95)))
 (let ((@x1194 (mp (mp @x96 (quant-intro (proof-bind ?x600) (= $x95 $x1103)) $x1103) (rewrite (= $x1103 $x1103)) $x1103)))
 (let ((@x679 (mp (mp @x1194 (quant-intro (proof-bind ?x1200) (= $x1103 $x1127)) $x1127) (quant-intro (proof-bind ?x336) (= $x1127 $x340)) $x340)))
 (let ((@x1314 (mp~ (mp @x679 (quant-intro (proof-bind ?x344) (= $x340 $x1022)) $x1022) (sk (~ $x1022 $x1290)) $x1290)))
 (let ((@x750 (mp @x1314 (rewrite (= $x1290 $x464)) $x464)))
 (let ((@x1255 (and-elim @x750 $x1257)))
 (let ((@x874 (unit-resolution ((_ th-lemma arith triangle-eq) (or (not $x1257) $x1291)) @x1255 $x1291)))
 (let (($x1317 (>= ?x1338 (- 1))))
 (let ((@x609 (unit-resolution ((_ th-lemma arith triangle-eq) (or (not $x1257) $x1317)) @x1255 $x1317)))
 (let (($x616 (<= ?x165 6)))
 (let ((@x512 (and-elim @x750 $x187)))
 (let ((@x480 (unit-resolution ((_ th-lemma arith triangle-eq) (or (not $x187) $x616)) @x512 $x616)))
 (let (($x599 (>= ?x165 6)))
 (let ((@x572 (unit-resolution ((_ th-lemma arith triangle-eq) (or (not $x187) $x599)) @x512 $x599)))
 (let (($x234 (<= ?x1294 (- 4))))
 (let ((@x1297 (and-elim @x750 $x1184)))
 (let ((@x836 (unit-resolution ((_ th-lemma arith triangle-eq) (or (not $x1184) $x234)) @x1297 $x234)))
 (let (($x1181 (>= ?x1294 (- 4))))
 (let ((@x855 (unit-resolution ((_ th-lemma arith triangle-eq) (or (not $x1184) $x1181)) @x1297 $x1181)))
 (let (($x1229 (<= ?x1059 (- 1))))
 (let ((@x1334 (and-elim @x750 $x1182)))
 (let ((@x714 (unit-resolution ((_ th-lemma arith triangle-eq) (or (not $x1182) $x1229)) @x1334 $x1229)))
 (let (($x1244 (>= ?x1059 (- 1))))
 (let ((@x712 (unit-resolution ((_ th-lemma arith triangle-eq) (or (not $x1182) $x1244)) @x1334 $x1244)))
 (let (($x958 (not (<= ?x1065 0))))
 (let (($x1241 (>= ?x1065 0)))
 (let ((@x612 ((_ th-lemma arith) (hypothesis (not $x1241)) @x609 @x874 @x609 @x874 @x712 @x714 @x609 @x874 @x712 @x714 @x855 @x836 @x572 @x480 @x572 @x480 @x572 @x480 @x609 @x874 false)))
 (let ((@x698 (unit-resolution ((_ th-lemma arith triangle-eq) (or $x956 $x958 (not $x1241))) (and-elim @x750 $x717) (or $x958 (not $x1241)))))
 ((_ th-lemma arith) (unit-resolution @x698 (lemma @x612 $x1241) $x958) @x609 @x874 @x609 @x874 @x712 @x714 @x609 @x874 @x712 @x714 @x855 @x836 @x572 @x480 @x572 @x480 @x572 @x480 @x609 @x874 false)))))))))))))))))))))))))))))))))))))))))))))))))))))))))))))))))

(:added-eqs                 4
 :arith-assert-diseq        1
 :arith-assert-lower        18
 :arith-assert-upper        52
 :arith-branch-var          2
 :arith-conflicts           2
 :arith-eq-adapter          5
 :arith-gcd-tests           13
 :arith-grobner             2
 :arith-ineq-splits         2
 :arith-max-min             393
 :arith-nonlinear-bounds    10
 :arith-nonlinear-horner    18
 :arith-num-rows            9
 :arith-patches             4
 :arith-pivots              12
 :arith-row-summations      18
 :arith-tableau-max-columns 80
 :arith-tableau-max-rows    9
 :conflicts                 2
 :decisions                 44
 :del-clause                16
 :final-checks              8
 :max-memory                3.87
 :memory                    3.30
 :mk-bool-var               64
 :mk-clause                 16
 :num-allocs                1452738
 :num-checks                1
 :propagations              10
 :rlimit-count              11193
 :time                      0.01
 :total-time                0.02)
